p edge 40 240
e 1 2
e 1 3
e 1 4
e 1 5
e 1 6
e 1 7
e 1 8
e 1 9
e 1 10
e 1 11
e 1 12
e 1 13
e 2 3
e 2 4
e 2 14
e 2 15
e 2 16
e 2 17
e 2 18
e 2 19
e 2 20
e 2 21
e 2 22
e 3 12
e 3 22
e 3 28
e 3 30
e 3 31
e 3 33
e 3 36
e 3 38
e 3 39
e 3 40
e 4 13
e 4 21
e 4 27
e 4 29
e 4 32
e 4 34
e 4 35
e 4 37
e 4 39
e 4 40
e 5 6
e 5 8
e 5 15
e 5 19
e 5 20
e 5 27
e 5 30
e 5 31
e 5 34
e 5 37
e 5 38
e 6 8
e 6 16
e 6 18
e 6 22
e 6 23
e 6 25
e 6 29
e 6 32
e 6 33
e 6 40
e 7 9
e 7 10
e 7 14
e 7 20
e 7 22
e 7 23
e 7 26
e 7 27
e 7 30
e 7 32
e 7 39
e 8 14
e 8 17
e 8 21
e 8 24
e 8 26
e 8 28
e 8 35
e 8 36
e 8 39
e 9 11
e 9 15
e 9 17
e 9 18
e 9 28
e 9 29
e 9 30
e 9 33
e 9 34
e 9 35
e 10 13
e 10 14
e 10 15
e 10 16
e 10 24
e 10 25
e 10 28
e 10 31
e 10 37
e 10 40
e 11 12
e 11 16
e 11 19
e 11 21
e 11 23
e 11 24
e 11 27
e 11 29
e 11 31
e 11 36
e 12 18
e 12 20
e 12 24
e 12 25
e 12 26
e 12 32
e 12 35
e 12 37
e 12 38
e 13 17
e 13 19
e 13 23
e 13 25
e 13 26
e 13 33
e 13 34
e 13 36
e 13 38
e 14 18
e 14 19
e 14 29
e 14 31
e 14 32
e 14 35
e 14 36
e 14 38
e 15 21
e 15 22
e 15 23
e 15 24
e 15 33
e 15 35
e 15 37
e 15 38
e 16 17
e 16 20
e 16 27
e 16 28
e 16 32
e 16 33
e 16 36
e 16 37
e 17 18
e 17 24
e 17 25
e 17 27
e 17 30
e 17 38
e 17 39
e 18 23
e 18 26
e 18 31
e 18 34
e 18 37
e 18 40
e 19 20
e 19 24
e 19 26
e 19 29
e 19 30
e 19 33
e 19 40
e 20 23
e 20 25
e 20 28
e 20 34
e 20 35
e 20 39
e 21 23
e 21 25
e 21 26
e 21 28
e 21 30
e 21 31
e 21 32
e 22 24
e 22 25
e 22 26
e 22 27
e 22 29
e 22 34
e 22 36
e 23 36
e 23 38
e 23 39
e 23 40
e 24 32
e 24 34
e 24 39
e 24 40
e 25 29
e 25 30
e 25 31
e 25 35
e 26 27
e 26 28
e 26 33
e 26 37
e 27 31
e 27 35
e 27 38
e 27 40
e 28 29
e 28 34
e 28 38
e 28 40
e 29 37
e 29 38
e 29 39
e 30 32
e 30 36
e 30 37
e 30 40
e 31 33
e 31 34
e 31 39
e 32 33
e 32 34
e 32 38
e 33 35
e 33 39
e 34 36
e 35 36
e 35 40
e 36 37
e 37 39
